000 000 000 000 000 -99 -99 -99 -99 -99 -99 -99 -99 -99 -99 -99 -99 -99 -99 000 000 -99 -99 -99 -99 000 000 000 000 000 -99
000 000 000 000 000 000 000 000 -99 -99 -99 -99 -99 -99 -99 -99 -99 -99 -99 000 000 000 -99 -99 -99 000 000 -99 000 000 002
-99 000 000 000 000 000 000 000 000 000 -99 -99 -99 -99 000 000 -99 -99 -99 -99 000 000 000 000 -99 000 000 001 006 -99 002
000 -99 000 000 000 000 000 000 000 000 -99 000 000 -99 000 000 -99 -99 -99 -99 -99 000 000 000 000 000 000 000 000 -99 -99
000 000 000 000 000 000 000 000 000 000 -99 000 000 000 000 000 000 -99 -99 -99 000 000 000 000 -99 000 000 000 -99 -99 -99
000 000 000 000 000 000 000 000 000 000 -99 -99 000 000 -99 000 000 -99 -99 -99 -99 -99 000 000 000 -99 -99 -99 -99 -99 000
000 000 000 000 000 000 000 000 000 000 -99 -99 000 000 -99 000 000 -99 -99 -99 000 000 000 000 000 000 -99 -99 -99 -99 -99
000 000 000 000 000 -99 -99 000 000 000 -99 -99 000 -99 -99 000 000 000 000 -99 000 000 000 000 000 000 -99 -99 -99 -99 -99
000 000 000 000 000 000 -99 000 000 000 000 -99 -99 -99 -99 -99 000 000 000 -99 000 -99 -99 -99 000 000 -99 -99 -99 -99 -99
000 000 000 000 000 000 000 000 000 000 000 -99 -99 -99 -99 000 -99 000 000 -99 000 -99 -99 -99 000 000 000 000 -99 -99 -99
000 000 000 000 000 000 000 000 000 000 000 000 -99 -99 000 000 000 -99 000 -99 -99 -99 -99 -99 000 000 000 000 000 000 000
000 000 000 000 -99 000 000 000 000 000 000 000 -99 -99 000 000 000 -99 -99 -99 -99 -99 -99 000 000 000 000 000 000 000 000
000 000 000 000 000 000 000 000 000 -99 000 000 -99 -99 -99 000 000 000 000 -99 -99 -99 -99 000 000 000 000 000 000 000 000
000 000 000 000 000 000 000 000 -99 -99 -99 000 -99 -99 -99 -99 000 000 000 -99 -99 -99 -99 000 000 000 000 000 000 -99 000
000 000 000 000 000 000 000 000 -99 -99 -99 -99 -99 000 -99 -99 -99 -99 000 -99 -99 -99 -99 000 000 000 000 000 000 -99 -99
000 -99 000 000 000 000 000 000 -99 -99 -99 -99 000 000 000 -99 -99 -99 000 -99 -99 -99 -99 000 000 000 000 000 000 000 -99
000 -99 000 000 000 000 000 000 -99 -99 -99 -99 -99 000 000 -99 000 000 -99 -99 -99 -99 -99 -99 000 000 000 000 000 000 -99
000 000 000 000 -99 -99 000 000 000 -99 -99 -99 -99 000 000 -99 000 000 -99 -99 -99 -99 -99 -99 000 000 000 000 000 000 -99
000 000 000 000 -99 -99 000 000 000 -99 -99 -99 -99 000 000 -99 000 000 000 -99 -99 -99 000 -99 -99 000 000 000 000 000 -99
000 000 000 000 000 -99 000 000 000 000 000 -99 -99 000 000 000 000 000 000 -99 -99 -99 000 -99 -99 -99 -99 -99 -99 000 -99
000 000 000 000 000 000 000 000 000 000 -99 -99 -99 -99 -99 000 000 000 000 -99 -99 -99 000 -99 -99 -99 -99 -99 -99 -99 -99
000 000 000 000 000 000 000 000 000 000 -99 -99 -99 -99 -99 000 000 000 000 -99 -99 -99 000 -99 -99 -99 -99 -99 -99 -99 -99
000 000 000 000 000 000 000 000 000 000 -99 -99 -99 -99 -99 000 000 000 000 000 000 000 000 -99 -99 -99 -99 -99 -99 -99 -99
000 000 000 000 000 000 000 000 000 -99 -99 -99 -99 000 000 000 000 000 -99 000 000 000 000 -99 -99 -99 -99 -99 -99 -99 000
000 000 000 000 000 000 000 000 000 000 -99 -99 -99 -99 000 000 000 000 000 000 -99 000 000 -99 -99 -99 -99 -99 -99 -99 000
000 -99 000 000 000 000 000 000 000 000 000 -99 -99 -99 000 000 000 000 000 000 -99 -99 -99 -99 -99 -99 -99 -99 -99 000 000
000 000 000 000 000 000 000 000 000 000 000 -99 -99 -99 -99 -99 000 000 000 -99 -99 -99 -99 -99 -99 -99 -99 -99 -99 000 000
000 000 000 000 000 000 000 000 000 000 -99 -99 -99 -99 -99 000 000 000 000 -99 -99 -99 -99 -99 -99 -99 -99 -99 -99 -99 000
000 000 -99 -99 000 000 000 000 000 -99 -99 -99 -99 -99 000 000 000 000 -99 -99 -99 -99 -99 -99 -99 -99 -99 -99 -99 -99 000
000 000 000 -99 000 000 000 000 000 000 -99 -99 -99 000 000 000 000 000 000 000 -99 000 -99 -99 -99 -99 -99 -99 -99 -99 -99
000 000 000 000 000 000 000 000 000 000 -99 -99 -99 000 000 000 000 000 000 000 -99 000 -99 -99 -99 000 -99 -99 -99 -99 -99
000 -99 -99 -99 -99 -99 000 000 000 000 -99 -99 -99 000 000 000 000 000 000 000 000 000 000 000 000 000 -99 -99 000 -99 000
000 -99 000 000 -99 -99 -99 000 000 000 000 000 -99 000 000 000 000 000 000 -99 000 000 000 000 000 000 -99 000 000 000 000
000 000 000 000 -99 000 000 000 000 000 000 000 -99 000 -99 -99 000 000 000 -99 000 000 000 000 000 000 000 000 000 000 000
000 000 000 000 000 000 000 -99 000 000 000 000 -99 000 000 -99 -99 -99 -99 000 000 000 000 000 000 000 000 000 000 000 000
000 000 000 000 000 000 000 000 000 000 000 000 000 000 000 -99 -99 -99 -99 000 000 000 000 000 000 000 000 000 000 000 000
000 000 000 000 000 000 000 000 000 000 000 000 000 000 000 000 -99 -99 000 000 000 000 000 000 000 000 000 000 000 000 000
000 000 000 000 000 000 000 000 000 000 000 000 000 000 000 -99 -99 -99 000 000 000 000 000 000 000 000 000 000 000 000 000
000 000 000 000 000 000 000 000 000 000 000 000 000 000 000 000 000 000 000 000 000 000 000 000 000 000 000 000 000 000 -99
000 000 000 000 000 -99 000 000 000 000 000 000 000 000 000 000 000 000 000 000 000 -99 000 000 000 000 000 000 000 -99 -99
000 000 000 000 000 -99 -99 -99 -99 000 000 -99 000 000 000 000 000 000 000 000 000 -99 000 000 000 000 000 000 -99 -99 000
000 000 000 000 000 000 000 -99 000 000 000 000 000 000 000 000 000 000 000 000 000 000 000 -99 000 000 000 000 -99 000 000
000 000 -99 -99 000 000 000 -99 000 000 000 000 000 000 000 000 000 000 000 000 000 000 000 000 000 000 000 000 -99 -99 000
000 000 -99 -99 -99 000 000 -99 000 000 000 000 000 000 000 000 000 000 000 000 000 000 000 -99 000 000 000 -99 -99 -99 000
000 -99 -99 -99 000 000 000 000 000 000 000 000 000 000 000 000 000 000 000 000 000 000 -99 000 000 000 000 -99 -99 -99 000
-99 -99 -99 -99 -99 000 000 000 000 000 000 000 000 000 000 000 000 000 000 000 000 000 -99 000 000 000 000 000 -99 -99 000
-99 -99 -99 -99 000 000 000 -99 000 000 000 000 000 000 000 -99 000 001 000 000 000 000 000 000 000 000 000 -99 -99 -99 000
-99 -99 -99 -99 -99 000 -99 -99 000 000 000 000 000 000 000 -99 -99 000 000 000 000 000 000 -99 000 000 000 000 000 -99 -99
-99 -99 -99 -99 -99 -99 -99 -99 000 000 000 000 000 000 000 -99 000 000 000 000 000 000 000 000 000 000 000 000 000 000 -99
-99 -99 -99 -99 -99 -99 -99 -99 000 000 000 000 000 000 000 -99 000 000 000 000 000 000 -99 -99 000 000 000 000 000 -99 -99
-99 -99 -99 -99 -99 -99 -99 000 000 000 000 000 000 000 -99 -99 000 000 000 000 000 000 000 -99 -99 000 000 -99 000 -99 -99
-99 -99 -99 000 -99 -99 000 000 000 000 000 -99 000 000 -99 -99 000 000 000 000 000 000 000 -99 -99 -99 -99 -99 -99 -99 -99
-99 -99 000 000 -99 -99 000 000 000 000 000 -99 -99 -99 -99 -99 000 000 000 000 000 000 -99 -99 -99 -99 -99 -99 -99 -99 -99
-99 -99 -99 -99 -99 -99 -99 -99 -99 -99 -99 -99 -99 -99 -99 -99 000 000 000 -99 -99 -99 -99 -99 -99 -99 -99 -99 -99 -99 -99
-99 -99 -99 -99 -99 -99 -99 -99 -99 -99 -99 -99 -99 -99 -99 000 000 -99 -99 -99 -99 -99 -99 -99 -99 -99 -99 -99 -99 -99 -99
